2023/11/29
gurobi is now 11.0.0
previous version was 10.0.3
solving instance knapsack 50 1 log
Set parameter TokenServer to value "licences.gerad.lan"
Set parameter MIPGap to value 1e-06
Set parameter FuncPieceError to value 1e-06
Set parameter Threads to value 1
Set parameter FuncPieces to value -2
Set parameter TimeLimit to value 3600
Gurobi Optimizer version 12.0.0 build v12.0.0rc1 (linux64 - "AlmaLinux 9.6 (Sage Margay)")

CPU model: Intel(R) Xeon(R) Gold 6258R CPU @ 2.70GHz, instruction set [SSE2|AVX|AVX2|AVX512]
Thread count: 56 physical cores, 56 logical processors, using up to 1 threads

Non-default parameters:
TimeLimit  3600
MIPGap  1e-06
Threads  1
FuncPieces  -2
FuncPieceError  1e-06

Optimize a model with 201 rows, 250 columns and 400 nonzeros
Model fingerprint: 0xe78e4312
Model has 50 function constraints treated as nonlinear
  50 LOG
Variable types: 200 continuous, 50 integer (50 binary)
Coefficient statistics:
  Matrix range     [5e-02, 1e+02]
  Objective range  [1e+00, 1e+00]
  Bounds range     [1e+02, 1e+10]
  RHS range        [1e+00, 1e+05]
Warning: Model contains large bounds
         Consider reformulating model or setting NumericFocus parameter
         to avoid numerical issues.
Warning: x < 1e-10 in domain of log(x).
         Setting lower bound to 1e-10.
Presolve removed 200 rows and 150 columns
Presolve time: 0.00s
Presolved: 251 rows, 101 columns, 550 nonzeros
Presolved model has 50 nonlinear constraint(s)

Solving non-convex MINLP

Variable types: 101 continuous, 0 integer (0 binary)
Found heuristic solution: objective -1670.615804

Root relaxation: objective -1.701200e+03, 238 iterations, 0.00 seconds (0.00 work units)

    Nodes    |    Current Node    |     Objective Bounds      |     Work
 Expl Unexpl |  Obj  Depth IntInf | Incumbent    BestBd   Gap | It/Node Time

     0     0 -1701.2004    0   19 -1670.6158 -1701.2004  1.83%     -    0s
     0     0 -1689.5410    0   19 -1670.6158 -1689.5410  1.13%     -    0s
     0     0 -1677.1347    0   21 -1670.6158 -1677.1347  0.39%     -    0s
     0     0 -1672.8992    0   21 -1670.6158 -1672.8992  0.14%     -    0s
     0     0 -1671.1615    0   21 -1670.6158 -1671.1615  0.03%     -    0s
     0     0 -1671.1603    0   21 -1670.6158 -1671.1603  0.03%     -    0s
     0     0 -1670.8307    0   21 -1670.6158 -1670.8307  0.01%     -    0s
     0     0 -1670.7121    0   21 -1670.6158 -1670.7121  0.01%     -    0s
     0     0 -1670.7113    0   21 -1670.6158 -1670.7113  0.01%     -    0s
     0     0 -1670.6669    0   21 -1670.6158 -1670.6669  0.00%     -    0s
     0     0 -1670.6666    0   21 -1670.6158 -1670.6666  0.00%     -    0s
     0     0 -1670.6436    0   21 -1670.6158 -1670.6436  0.00%     -    0s
     0     0 -1670.6429    0   21 -1670.6158 -1670.6429  0.00%     -    0s
     0     2 -1670.6429    0   21 -1670.6158 -1670.6429  0.00%     -    0s
*  212   146             112    -1670.615871 -1670.6388  0.00%   9.8    0s

Explored 862 nodes (8646 simplex iterations) in 0.56 seconds (0.23 work units)
Thread count was 1 (of 56 available processors)

Solution count 2: -1670.62 -1670.62 

Optimal solution found (tolerance 1.00e-06)
Best objective -1.670615875345e+03, best bound -1.670617348529e+03, gap 0.0001%

User-callback calls 2245, time in user-callback 0.01 sec
primal_bound = -1670.6158753454076, dual_bound = 0.0, gap = 100.0, time = 0.85
